LPFile/20_2_nonvalidly_0.lp
Minimize
   z: 148 quantity_e_0_4_0 + 159 quantity_e_4_0_0 + 141 quantity_e_0_12_0 + 217 quantity_e_12_0_0 + 312 quantity_e_1_7_0 + 284 quantity_e_7_1_0 + 274 quantity_e_1_19_0 + 187 quantity_e_19_1_0 + 263 quantity_e_2_13_0 + 130 quantity_e_13_2_0 + 154 quantity_e_3_19_0 + 59 quantity_e_19_3_0 + 82 quantity_e_3_5_0 + 93 quantity_e_5_3_0 + 87 quantity_e_4_6_0 + 88 quantity_e_6_4_0 + 159 quantity_e_4_11_0 + 157 quantity_e_11_4_0 + 308 quantity_e_4_15_0 + 298 quantity_e_15_4_0 + 107 quantity_e_4_18_0 + 5 quantity_e_18_4_0 + 163 quantity_e_5_15_0 + 144 quantity_e_15_5_0 + 175 quantity_e_6_7_0 + 82 quantity_e_7_6_0 + 145 quantity_e_6_17_0 + 26 quantity_e_17_6_0 + 172 quantity_e_7_13_0 + 48 quantity_e_13_7_0 + 136 quantity_e_7_18_0 + 119 quantity_e_18_7_0 + 198 quantity_e_8_15_0 + 272 quantity_e_15_8_0 + 6 quantity_e_9_10_0 + 55 quantity_e_10_9_0 + 106 quantity_e_9_14_0 + 127 quantity_e_14_9_0 + 242 quantity_e_9_13_0 + 158 quantity_e_13_9_0 + 194 quantity_e_9_12_0 + 169 quantity_e_12_9_0 + 59 quantity_e_10_19_0 + 3 quantity_e_19_10_0 + 131 quantity_e_10_17_0 + 174 quantity_e_17_10_0 + 96 quantity_e_12_14_0 + 169 quantity_e_14_12_0 + 57 quantity_e_12_15_0 + 195 quantity_e_15_12_0 + 118 quantity_e_13_17_0 + 185 quantity_e_17_13_0 + 199 quantity_e_14_17_0 + 130 quantity_e_17_14_0 + 97 quantity_e_14_19_0 + 37 quantity_e_19_14_0 + 158 quantity_e_14_16_0 + 137 quantity_e_16_14_0 + 227 quantity_e_15_19_0 + 195 quantity_e_19_15_0 + 42 quantity_e_16_16_0
Subject to
   contraite_3_0: quantity_e_19_3_0 + quantity_e_5_3_0 - quantity_e_3_19_0 - quantity_e_3_5_0 = 923
   contraite_5_0: quantity_e_3_5_0 + quantity_e_15_5_0 - quantity_e_5_3_0 - quantity_e_5_15_0 = 410
   contraite_8_0: quantity_e_15_8_0 - quantity_e_8_15_0 = 192
   contraite_19_0: quantity_e_1_19_0 + quantity_e_3_19_0 + quantity_e_10_19_0 + quantity_e_14_19_0 + quantity_e_15_19_0 - quantity_e_19_1_0 - quantity_e_19_3_0 - quantity_e_19_10_0 - quantity_e_19_14_0 - quantity_e_19_15_0 = 743
   contraite_10_0: quantity_e_9_10_0 + quantity_e_19_10_0 + quantity_e_17_10_0 - quantity_e_10_9_0 - quantity_e_10_19_0 - quantity_e_10_17_0 = 1313
   contraite_11_0: quantity_e_11_4_0 - quantity_e_4_11_0 <= 455
   contraite_18_0: quantity_e_18_4_0 + quantity_e_18_7_0 - quantity_e_4_18_0 - quantity_e_7_18_0 <= 1842
   contraite_6_0: quantity_e_6_4_0 + quantity_e_6_7_0 + quantity_e_6_17_0 - quantity_e_4_6_0 - quantity_e_7_6_0 - quantity_e_17_6_0 <= 449
   contraite_4_0: quantity_e_4_0_0 + quantity_e_4_6_0 + quantity_e_4_11_0 + quantity_e_4_15_0 + quantity_e_4_18_0 - quantity_e_0_4_0 - quantity_e_6_4_0 - quantity_e_11_4_0 - quantity_e_15_4_0 - quantity_e_18_4_0 <= 837
   contraite_0_0: quantity_e_4_0_0 + quantity_e_12_0_0 - quantity_e_0_4_0 - quantity_e_0_12_0 = 0
   contraite_1_0: quantity_e_7_1_0 + quantity_e_19_1_0 - quantity_e_1_7_0 - quantity_e_1_19_0 = 0
   contraite_2_0: quantity_e_13_2_0 - quantity_e_2_13_0 = 0
   contraite_7_0: quantity_e_1_7_0 + quantity_e_6_7_0 + quantity_e_13_7_0 + quantity_e_18_7_0 - quantity_e_7_1_0 - quantity_e_7_6_0 - quantity_e_7_13_0 - quantity_e_7_18_0 = 0
   contraite_9_0: quantity_e_10_9_0 + quantity_e_14_9_0 + quantity_e_13_9_0 + quantity_e_12_9_0 - quantity_e_9_10_0 - quantity_e_9_14_0 - quantity_e_9_13_0 - quantity_e_9_12_0 = 0
   contraite_12_0: quantity_e_0_12_0 + quantity_e_9_12_0 + quantity_e_14_12_0 + quantity_e_15_12_0 - quantity_e_12_0_0 - quantity_e_12_9_0 - quantity_e_12_14_0 - quantity_e_12_15_0 = 0
   contraite_13_0: quantity_e_2_13_0 + quantity_e_7_13_0 + quantity_e_9_13_0 + quantity_e_17_13_0 - quantity_e_13_2_0 - quantity_e_13_7_0 - quantity_e_13_9_0 - quantity_e_13_17_0 = 0
   contraite_14_0: quantity_e_9_14_0 + quantity_e_12_14_0 + quantity_e_17_14_0 + quantity_e_19_14_0 + quantity_e_16_14_0 - quantity_e_14_9_0 - quantity_e_14_12_0 - quantity_e_14_17_0 - quantity_e_14_19_0 - quantity_e_14_16_0 = 0
   contraite_15_0: quantity_e_4_15_0 + quantity_e_5_15_0 + quantity_e_8_15_0 + quantity_e_12_15_0 + quantity_e_19_15_0 - quantity_e_15_4_0 - quantity_e_15_5_0 - quantity_e_15_8_0 - quantity_e_15_12_0 - quantity_e_15_19_0 = 0
   contraite_16_0: quantity_e_14_16_0 + quantity_e_16_16_0 - quantity_e_16_14_0 - quantity_e_16_16_0 = 0
   contraite_17_0: quantity_e_6_17_0 + quantity_e_10_17_0 + quantity_e_13_17_0 + quantity_e_14_17_0 - quantity_e_17_6_0 - quantity_e_17_10_0 - quantity_e_17_13_0 - quantity_e_17_14_0 = 0
Integer
   quantity_e_0_4_0
   quantity_e_4_0_0
   quantity_e_0_12_0
   quantity_e_12_0_0
   quantity_e_1_7_0
   quantity_e_7_1_0
   quantity_e_1_19_0
   quantity_e_19_1_0
   quantity_e_2_13_0
   quantity_e_13_2_0
   quantity_e_3_19_0
   quantity_e_19_3_0
   quantity_e_3_5_0
   quantity_e_5_3_0
   quantity_e_4_6_0
   quantity_e_6_4_0
   quantity_e_4_11_0
   quantity_e_11_4_0
   quantity_e_4_15_0
   quantity_e_15_4_0
   quantity_e_4_18_0
   quantity_e_18_4_0
   quantity_e_5_15_0
   quantity_e_15_5_0
   quantity_e_6_7_0
   quantity_e_7_6_0
   quantity_e_6_17_0
   quantity_e_17_6_0
   quantity_e_7_13_0
   quantity_e_13_7_0
   quantity_e_7_18_0
   quantity_e_18_7_0
   quantity_e_8_15_0
   quantity_e_15_8_0
   quantity_e_9_10_0
   quantity_e_10_9_0
   quantity_e_9_14_0
   quantity_e_14_9_0
   quantity_e_9_13_0
   quantity_e_13_9_0
   quantity_e_9_12_0
   quantity_e_12_9_0
   quantity_e_10_19_0
   quantity_e_19_10_0
   quantity_e_10_17_0
   quantity_e_17_10_0
   quantity_e_12_14_0
   quantity_e_14_12_0
   quantity_e_12_15_0
   quantity_e_15_12_0
   quantity_e_13_17_0
   quantity_e_17_13_0
   quantity_e_14_17_0
   quantity_e_17_14_0
   quantity_e_14_19_0
   quantity_e_19_14_0
   quantity_e_14_16_0
   quantity_e_16_14_0
   quantity_e_15_19_0
   quantity_e_19_15_0
   quantity_e_16_16_0
End